c Standarized MaxSat Instance
c{
c "sha1sum": "7ab7ce0b06dd58b6e04bcdf86ab99df19851ad05",
c "nvars": 194,
c "ncls": 519,
c "total_lits": 1431,
c "nhards": 479,
c "nhard_nlits": 1391,
c "nhard_len_stats":
c    { "min": 1,
c      "max": 4,
c      "ave": 2.9040,
c      "stddev": 0.6615 },
c "nsofts": 40,
c "nsoft_nlits": 40,
c "nsoft_len_stats":
c    { "min": 1,
c      "max": 1,
c      "ave": 1.0000,
c      "stddev": 0.0000 },
c "nsoft_wts": 1,
c "soft_wt_stats":
c    { "min": 1,
c      "max": 1,
c      "ave": 1.0000,
c      "stddev": 0.0000 }
c}
c------------------------------------------------------------
c This instance encodes a supposedly trivial MaxSAT formula.
c The hard part of the formula encodes a cardinality constraint:
c     x1 + ... + x40 <= 12
c Cardinality encoding used is 'mtot'.
c The soft part prefers all the variables to be set to true:
c     x1 = 1, ..., x40 = 1
c As a result, the optimum cost for this formula is 28.
c
1 1 0
1 2 0
1 3 0
1 4 0
1 5 0
1 6 0
1 7 0
1 8 0
1 9 0
1 10 0
1 11 0
1 12 0
1 13 0
1 14 0
1 15 0
1 16 0
1 17 0
1 18 0
1 19 0
1 20 0
1 21 0
1 22 0
1 23 0
1 24 0
1 25 0
1 26 0
1 27 0
1 28 0
1 29 0
1 30 0
1 31 0
1 32 0
1 33 0
1 34 0
1 35 0
1 36 0
1 37 0
1 38 0
1 39 0
1 40 0
h -63 47 68 0
h -64 48 68 0
h -65 49 68 0
h -66 50 68 0
h -67 51 68 0
h -55 47 68 0
h -56 48 68 0
h -57 49 68 0
h -58 50 68 0
h -59 51 68 0
h -55 -63 48 68 0
h -55 -64 49 68 0
h -55 -65 50 68 0
h -55 -66 51 68 0
h -55 -67 68 0
h -56 -63 49 68 0
h -56 -64 50 68 0
h -56 -65 51 68 0
h -56 -66 68 0
h -56 -67 47 0
h -57 -63 50 68 0
h -57 -64 51 68 0
h -57 -65 68 0
h -57 -66 47 0
h -57 -67 48 0
h -58 -63 51 68 0
h -58 -64 68 0
h -58 -65 47 0
h -58 -66 48 0
h -58 -67 49 0
h -59 -63 68 0
h -59 -64 47 0
h -59 -65 48 0
h -59 -66 49 0
h -59 -67 50 0
h -68 41 0
h -60 41 0
h -68 -60 42 0
h -61 42 0
h -68 -61 43 0
h -62 43 0
h -68 -62 44 0
h -52 41 0
h -68 -52 42 0
h -53 42 0
h -68 -53 43 0
h -54 43 0
h -68 -54 44 0
h -52 -60 42 0
h -68 -52 -60 43 0
h -52 -61 43 0
h -68 -52 -61 44 0
h -52 -62 44 0
h -68 -52 -62 45 0
h -53 -60 43 0
h -68 -53 -60 44 0
h -53 -61 44 0
h -68 -53 -61 45 0
h -53 -62 45 0
h -68 -53 -62 46 0
h -54 -60 44 0
h -68 -54 -60 45 0
h -54 -61 45 0
h -68 -54 -61 46 0
h -54 -62 46 0
h -68 -54 -62 0
h -76 63 81 0
h -77 64 81 0
h -78 65 81 0
h -79 66 81 0
h -80 67 81 0
h -70 63 81 0
h -71 64 81 0
h -72 65 81 0
h -73 66 81 0
h -74 67 81 0
h -70 -76 64 81 0
h -70 -77 65 81 0
h -70 -78 66 81 0
h -70 -79 67 81 0
h -70 -80 81 0
h -71 -76 65 81 0
h -71 -77 66 81 0
h -71 -78 67 81 0
h -71 -79 81 0
h -71 -80 63 0
h -72 -76 66 81 0
h -72 -77 67 81 0
h -72 -78 81 0
h -72 -79 63 0
h -72 -80 64 0
h -73 -76 67 81 0
h -73 -77 81 0
h -73 -78 63 0
h -73 -79 64 0
h -73 -80 65 0
h -74 -76 81 0
h -74 -77 63 0
h -74 -78 64 0
h -74 -79 65 0
h -74 -80 66 0
h -81 60 0
h -75 60 0
h -81 -75 61 0
h -69 60 0
h -81 -69 61 0
h -69 -75 61 0
h -81 -69 -75 62 0
h -90 82 0
h -91 83 0
h -87 82 0
h -88 83 0
h -89 84 0
h -87 -90 83 0
h -87 -91 84 0
h -88 -90 84 0
h -88 -91 85 0
h -89 -90 85 0
h -89 -91 86 0
h -35 90 0
h -34 90 0
h -34 -35 91 0
h -33 87 0
h -92 87 0
h -93 88 0
h -92 -33 88 0
h -93 -33 89 0
h -32 92 0
h -31 92 0
h -31 -32 93 0
h -102 94 0
h -103 95 0
h -99 94 0
h -100 95 0
h -101 96 0
h -99 -102 95 0
h -99 -103 96 0
h -100 -102 96 0
h -100 -103 97 0
h -101 -102 97 0
h -101 -103 98 0
h -40 102 0
h -39 102 0
h -39 -40 103 0
h -38 99 0
h -104 99 0
h -105 100 0
h -104 -38 100 0
h -105 -38 101 0
h -37 104 0
h -36 104 0
h -36 -37 105 0
h -94 76 106 0
h -95 77 106 0
h -96 78 106 0
h -97 79 106 0
h -98 80 106 0
h -82 76 106 0
h -83 77 106 0
h -84 78 106 0
h -85 79 106 0
h -86 80 106 0
h -82 -94 77 106 0
h -82 -95 78 106 0
h -82 -96 79 106 0
h -82 -97 80 106 0
h -82 -98 106 0
h -83 -94 78 106 0
h -83 -95 79 106 0
h -83 -96 80 106 0
h -83 -97 106 0
h -83 -98 76 0
h -84 -94 79 106 0
h -84 -95 80 106 0
h -84 -96 106 0
h -84 -97 76 0
h -84 -98 77 0
h -85 -94 80 106 0
h -85 -95 106 0
h -85 -96 76 0
h -85 -97 77 0
h -85 -98 78 0
h -86 -94 106 0
h -86 -95 76 0
h -86 -96 77 0
h -86 -97 78 0
h -86 -98 79 0
h -106 75 0
h -115 107 0
h -116 108 0
h -112 107 0
h -113 108 0
h -114 109 0
h -112 -115 108 0
h -112 -116 109 0
h -113 -115 109 0
h -113 -116 110 0
h -114 -115 110 0
h -114 -116 111 0
h -25 115 0
h -24 115 0
h -24 -25 116 0
h -23 112 0
h -117 112 0
h -118 113 0
h -117 -23 113 0
h -118 -23 114 0
h -22 117 0
h -21 117 0
h -21 -22 118 0
h -127 119 0
h -128 120 0
h -124 119 0
h -125 120 0
h -126 121 0
h -124 -127 120 0
h -124 -128 121 0
h -125 -127 121 0
h -125 -128 122 0
h -126 -127 122 0
h -126 -128 123 0
h -30 127 0
h -29 127 0
h -29 -30 128 0
h -28 124 0
h -129 124 0
h -130 125 0
h -129 -28 125 0
h -130 -28 126 0
h -27 129 0
h -26 129 0
h -26 -27 130 0
h -119 70 131 0
h -120 71 131 0
h -121 72 131 0
h -122 73 131 0
h -123 74 131 0
h -107 70 131 0
h -108 71 131 0
h -109 72 131 0
h -110 73 131 0
h -111 74 131 0
h -107 -119 71 131 0
h -107 -120 72 131 0
h -107 -121 73 131 0
h -107 -122 74 131 0
h -107 -123 131 0
h -108 -119 72 131 0
h -108 -120 73 131 0
h -108 -121 74 131 0
h -108 -122 131 0
h -108 -123 70 0
h -109 -119 73 131 0
h -109 -120 74 131 0
h -109 -121 131 0
h -109 -122 70 0
h -109 -123 71 0
h -110 -119 74 131 0
h -110 -120 131 0
h -110 -121 70 0
h -110 -122 71 0
h -110 -123 72 0
h -111 -119 131 0
h -111 -120 70 0
h -111 -121 71 0
h -111 -122 72 0
h -111 -123 73 0
h -131 69 0
h -139 55 144 0
h -140 56 144 0
h -141 57 144 0
h -142 58 144 0
h -143 59 144 0
h -133 55 144 0
h -134 56 144 0
h -135 57 144 0
h -136 58 144 0
h -137 59 144 0
h -133 -139 56 144 0
h -133 -140 57 144 0
h -133 -141 58 144 0
h -133 -142 59 144 0
h -133 -143 144 0
h -134 -139 57 144 0
h -134 -140 58 144 0
h -134 -141 59 144 0
h -134 -142 144 0
h -134 -143 55 0
h -135 -139 58 144 0
h -135 -140 59 144 0
h -135 -141 144 0
h -135 -142 55 0
h -135 -143 56 0
h -136 -139 59 144 0
h -136 -140 144 0
h -136 -141 55 0
h -136 -142 56 0
h -136 -143 57 0
h -137 -139 144 0
h -137 -140 55 0
h -137 -141 56 0
h -137 -142 57 0
h -137 -143 58 0
h -144 52 0
h -138 52 0
h -144 -138 53 0
h -132 52 0
h -144 -132 53 0
h -132 -138 53 0
h -144 -132 -138 54 0
h -153 145 0
h -154 146 0
h -150 145 0
h -151 146 0
h -152 147 0
h -150 -153 146 0
h -150 -154 147 0
h -151 -153 147 0
h -151 -154 148 0
h -152 -153 148 0
h -152 -154 149 0
h -15 153 0
h -14 153 0
h -14 -15 154 0
h -13 150 0
h -155 150 0
h -156 151 0
h -155 -13 151 0
h -156 -13 152 0
h -12 155 0
h -11 155 0
h -11 -12 156 0
h -165 157 0
h -166 158 0
h -162 157 0
h -163 158 0
h -164 159 0
h -162 -165 158 0
h -162 -166 159 0
h -163 -165 159 0
h -163 -166 160 0
h -164 -165 160 0
h -164 -166 161 0
h -20 165 0
h -19 165 0
h -19 -20 166 0
h -18 162 0
h -167 162 0
h -168 163 0
h -167 -18 163 0
h -168 -18 164 0
h -17 167 0
h -16 167 0
h -16 -17 168 0
h -157 139 169 0
h -158 140 169 0
h -159 141 169 0
h -160 142 169 0
h -161 143 169 0
h -145 139 169 0
h -146 140 169 0
h -147 141 169 0
h -148 142 169 0
h -149 143 169 0
h -145 -157 140 169 0
h -145 -158 141 169 0
h -145 -159 142 169 0
h -145 -160 143 169 0
h -145 -161 169 0
h -146 -157 141 169 0
h -146 -158 142 169 0
h -146 -159 143 169 0
h -146 -160 169 0
h -146 -161 139 0
h -147 -157 142 169 0
h -147 -158 143 169 0
h -147 -159 169 0
h -147 -160 139 0
h -147 -161 140 0
h -148 -157 143 169 0
h -148 -158 169 0
h -148 -159 139 0
h -148 -160 140 0
h -148 -161 141 0
h -149 -157 169 0
h -149 -158 139 0
h -149 -159 140 0
h -149 -160 141 0
h -149 -161 142 0
h -169 138 0
h -178 170 0
h -179 171 0
h -175 170 0
h -176 171 0
h -177 172 0
h -175 -178 171 0
h -175 -179 172 0
h -176 -178 172 0
h -176 -179 173 0
h -177 -178 173 0
h -177 -179 174 0
h -5 178 0
h -4 178 0
h -4 -5 179 0
h -3 175 0
h -180 175 0
h -181 176 0
h -180 -3 176 0
h -181 -3 177 0
h -2 180 0
h -1 180 0
h -1 -2 181 0
h -190 182 0
h -191 183 0
h -187 182 0
h -188 183 0
h -189 184 0
h -187 -190 183 0
h -187 -191 184 0
h -188 -190 184 0
h -188 -191 185 0
h -189 -190 185 0
h -189 -191 186 0
h -10 190 0
h -9 190 0
h -9 -10 191 0
h -8 187 0
h -192 187 0
h -193 188 0
h -192 -8 188 0
h -193 -8 189 0
h -7 192 0
h -6 192 0
h -6 -7 193 0
h -182 133 194 0
h -183 134 194 0
h -184 135 194 0
h -185 136 194 0
h -186 137 194 0
h -170 133 194 0
h -171 134 194 0
h -172 135 194 0
h -173 136 194 0
h -174 137 194 0
h -170 -182 134 194 0
h -170 -183 135 194 0
h -170 -184 136 194 0
h -170 -185 137 194 0
h -170 -186 194 0
h -171 -182 135 194 0
h -171 -183 136 194 0
h -171 -184 137 194 0
h -171 -185 194 0
h -171 -186 133 0
h -172 -182 136 194 0
h -172 -183 137 194 0
h -172 -184 194 0
h -172 -185 133 0
h -172 -186 134 0
h -173 -182 137 194 0
h -173 -183 194 0
h -173 -184 133 0
h -173 -185 134 0
h -173 -186 135 0
h -174 -182 194 0
h -174 -183 133 0
h -174 -184 134 0
h -174 -185 135 0
h -174 -186 136 0
h -194 132 0
h -43 0
h -44 0
h -45 0
h -46 0
h -42 -47 0
h -42 -48 0
h -42 -49 0
h -42 -50 0
h -42 -51 0
